(set-option :print-success false)
(set-logic QF_UF)
(declare-sort x193 0)
(declare-sort x136 0)
(declare-fun x171 () x136)
(declare-fun x229 () x136)
(declare-fun x80 () x136)
(declare-fun x57 () x136)
(declare-fun x234 (x136 x136) x136)
(declare-fun x46 () x136)
(declare-fun x128 (x136 x136) x136)
(declare-fun x163 () x136)
(declare-fun x181 () x136)
(assert (let ((x244 (x234 x57 x163)) (x250 (x234 x57 x181)) (x156 (x234 x163 x46)) (x179 (x234 x80 x171)) (x127 (x234 x171 x163)) (x155 (x234 x80 x46)) (x133 (x234 x46 x163)) (x63 (x234 x171 x171)) (x34 (x234 x57 x171)) (x212 (x234 x80 x57)) (x6 (x234 x46 x171)) (x43 (x234 x46 x80)) (x25 (x234 x171 x181)) (x56 (x234 x181 x181)) (x108 (x234 x46 x46)) (x118 (x234 x181 x171)) (x231 (x234 x171 x46)) (x113 (x234 x46 x57)) (x114 (x234 x181 x57)) (x166 (x234 x80 x163)) (x130 (x234 x80 x80)) (x126 (x234 x163 x163)) (x47 (x234 x57 x46)) (x208 (x234 x181 x163)) (x227 (x234 x163 x57)) (x183 (x234 x163 x171)) (x7 (x234 x46 x181)) (x72 (x234 x163 x181)) (x107 (x234 x181 x46)) (x159 (x234 x163 x80)) (x247 (x234 x171 x57)) (x55 (x234 x171 x80)) (x147 (x234 x57 x80)) (x200 (x234 x181 x80)) (x65 (x234 x57 x57)) (x123 (x234 x80 x181))) (let ((x259 (= x163 x55)) (x89 (= x171 x244)) (x106 (= x72 x171)) (x67 (= x80 x130)) (x30 (= x72 x46)) (x184 (= x163 x133)) (x206 (= x231 x163)) (x97 (= x72 x80)) (x201 (= x57 x133)) (x194 (= x57 x47)) (x121 (= x166 x163)) (x224 (= x80 x107)) (x260 (= x57 x208)) (x129 (= x57 x34)) (x226 (= x123 x171)) (x36 (= x171 x56)) (x158 (= x181 x65)) (x190 (= x118 x171)) (x142 (= x183 x80)) (x221 (= x46 x247)) (x161 (= x181 x183)) (x75 (= x63 x46)) (x214 (= x63 x163)) (x32 (= x80 x250)) (x173 (= x166 x171)) (x211 (= x57 x108)) (x11 (= x147 x163)) (x232 (= x46 x250)) (x38 (= x166 x181)) (x50 (= x55 x171)) (x196 (= x200 x163)) (x245 (= x47 x80)) (x17 (= x181 x72)) (x143 (= x80 x34)) (x115 (= x113 x181)) (x134 (= x181 x127)) (x239 (= x57 x227)) (x83 (= x200 x57)) (x27 (= x123 x57)) (x26 (= x57 x7)) (x95 (= x181 x130)) (x153 (= x65 x171)) (x87 (= x159 x57)) (x96 (= x46 x156)) (x66 (= x114 x80)) (x62 (= x80 x108)) (x79 (= x183 x57)) (x19 (= x163 x6)) (x99 (= x163 x7)) (x48 (= x80 x65)) (x202 (= x46 x55)) (x110 (= x46 x166)) (x149 (= x171 x179)) (x235 (= x163 x156)) (x54 (= x171 x63)) (x178 (= x46 x231)) (x105 (= x179 x57)) (x35 (= x107 x57)) (x120 (= x181 x244)) (x216 (= x179 x181)) (x73 (= x247 x163)) (x76 (= x34 x46)) (x88 (= x163 x127)) (x125 (= x130 x163)) (x243 (= x171 x113)) (x122 (= x171 x155)) (x86 (= x57 x156)) (x236 (= x65 x57)) (x39 (= x57 x114)) (x37 (= x171 x212)) (x103 (= x113 x46)) (x12 (= x114 x163)) (x177 (= x147 x171)) (x14 (= x156 x181)) (x162 (= x25 x57)) (x146 (= x118 x80)) (x90 (= x47 x171)) (x3 (= x80 x155)) (x141 (= x46 x126)) (x223 (= x250 x171)) (x241 (= x57 x72)) (x64 (= x47 x163)) (x207 (= x46 x43)) (x59 (= x113 x57)) (x152 (= x7 x171)) (x263 (= x47 x46)) (x41 (= x108 x46)) (x24 (= x250 x163)) (x112 (= x46 x65)) (x9 (= x171 x107)) (x253 (= x181 x231)) (x176 (= x127 x46)) (x23 (= x163 x113)) (x164 (= x155 x181)) (x192 (= x55 x80)) (x53 (= x114 x181)) (x170 (= x247 x57)) (x2 (= x155 x57)) (x154 (= x126 x80)) (x92 (= x163 x34)) (x210 (= x208 x46)) (x93 (= x171 x133)) (x16 (= x183 x46)) (x15 (= x163 x212)) (x98 (= x227 x181)) (x111 (= x130 x57)) (x104 (= x179 x46)) (x31 (= x80 x123)) (x219 (= x171 x114)) (x10 (= x72 x163)) (x102 (= x171 x108)) (x186 (= x56 x46)) (x258 (= x127 x80)) (x1 (= x166 x80)) (x60 (= x130 x46)) (x18 (= x171 x156)) (x197 (= x57 x244)) (x175 (= x25 x46)) (x28 (= x159 x181)) (x255 (= x123 x163)) (x195 (= x231 x80)) (x251 (= x57 x118)) (x74 (= x227 x163)) (x116 (= x43 x163)) (x257 (= x171 x227)) (x85 (= x127 x57)) (x101 (= x80 x227)) (x69 (= x183 x163)) (x261 (= x127 x171)) (x140 (= x212 x57)) (x45 (= x171 x159)) (x242 (= x163 x118)) (x215 (= x181 x108)) (x172 (= x163 x155)) (x217 (= x159 x163)) (x117 (= x108 x163)) (x139 (= x133 x46)) (x49 (= x147 x46)) (x138 (= x56 x163)) (x52 (= x7 x46)) (x256 (= x25 x181)) (x119 (= x63 x181)) (x151 (= x181 x107)) (x148 (= x25 x171)) (x248 (= x57 x166)) (x91 (= x46 x155)) (x240 (= x171 x43)) (x230 (= x6 x46)) (x187 (= x200 x171)) (x29 (= x80 x244)) (x160 (= x183 x171)) (x33 (= x46 x118)) (x213 (= x181 x43)) (x44 (= x57 x147)) (x132 (= x56 x80)) (x228 (= x46 x227)) (x237 (= x107 x163)) (x68 (= x80 x208)) (x254 (= x126 x57)) (x51 (= x114 x46)) (x252 (= x171 x34)) (x205 (= x126 x181)) (x218 (= x63 x57)) (x185 (= x46 x159)) (x145 (= x34 x181)) (x135 (= x55 x181)) (x5 (= x57 x231)) (x82 (= x80 x7)) (x246 (= x208 x163)) (x150 (= x118 x181)) (x61 (= x6 x80)) (x168 (= x181 x6)) (x188 (= x133 x181)) (x40 (= x6 x57)) (x58 (= x171 x231)) (x157 (= x123 x181)) (x169 (= x46 x107)) (x109 (= x247 x181)) (x222 (= x55 x57)) (x13 (= x156 x80)) (x124 (= x171 x6)) (x209 (= x250 x57)) (x94 (= x126 x163)) (x233 (= x200 x80)) (x137 (= x80 x159)) (x204 (= x57 x56)) (x262 (= x80 x133)) (x81 (= x126 x171)) (x70 (= x63 x80)) (x203 (= x208 x171)) (x131 (= x163 x179)) (x165 (= x80 x247)) (x191 (= x179 x80)) (x238 (= x181 x47)) (x78 (= x181 x208)) (x199 (= x80 x113)) (x22 (= x244 x46)) (x182 (= x200 x181)) (x167 (= x57 x43)) (x4 (= x43 x80)) (x144 (= x212 x80)) (x77 (= x123 x46)) (x225 (= x65 x163)) (x71 (= x247 x171)) (x180 (= x7 x181)) (x249 (= x130 x171)) (x189 (= x181 x147)) (x21 (= x163 x25)) (x220 (= x25 x80)) (x100 (= x80 x147)) (x84 (= x56 x181)) (x174 (= x181 x250)) (x20 (= x46 x212)) (x8 (= x200 x46)) (x198 (= x212 x181)) (x42 (= x163 x244))) (and (and (and (and (and (and (or x111 (or (or x27 (or (or x248 x105) x140)) x2)) (or x111 (or (or (or (or x87 x222) x44) x83) x167))) (and (and (or (or (or x187 (or (or x45 x50) x177)) x240) x249) (or x249 (or x122 (or x226 (or x37 (or x173 x149)))))) (and (or (or (or (or x11 (or x217 x259)) x196) x116) x125) (or x125 (or (or x255 (or x15 (or x121 x131))) x172))))) (and (or x95 (or x164 (or (or x198 (or x216 x38)) x157))) (or (or (or (or (or x135 x28) x189) x182) x213) x95))) (and (or (or x91 (or (or x20 (or x104 x110)) x77)) x60) (or x60 (or x207 (or (or (or x185 x202) x49) x8))))) (and (or x67 (or (or x31 (or (or x1 x191) x144)) x3)) (or (or (or x233 (or (or x192 x137) x100)) x4) x67))) (and (and (and (or (or (or (or x199 (or x262 x61)) x82) x62) x4) (or x3 (or (or x224 (or (or x195 x13) x245)) x62))) (and (and (and (and (or x2 (or (or (or x194 (or x5 x86)) x35) x211)) (or (or x211 (or x26 (or (or x40 x201) x59))) x167)) (and (and (or x116 (or x117 (or x99 (or x23 (or x19 x184))))) (or (or (or x237 (or (or x235 x206) x64)) x117) x172)) (and (or (or (or x152 (or (or x93 x124) x243)) x102) x240) (or x122 (or (or x9 (or (or x18 x58) x90)) x102))))) (and (or (or (or x151 (or x238 (or x253 x14))) x215) x164) (or x213 (or x215 (or x180 (or x115 (or x188 x168))))))) (and (or (or (or x52 (or (or x139 x230) x103)) x41) x207) (or x91 (or (or x169 (or (or x96 x178) x263)) x41))))) (and (and (and (or (or (or (or x66 (or x146 x68)) x132) x224) x233) (or (or (or (or x32 (or x220 x97)) x132) x82) x31)) (and (and (or (or x52 (or x186 (or x232 (or x30 x175)))) x77) (or (or (or x186 (or x51 (or x210 x33))) x169) x8)) (and (and (or (or (or (or (or x78 x150) x53) x84) x151) x182) (or x157 (or (or x84 (or x174 (or x17 x256))) x180))) (and (and (or (or (or (or (or x251 x260) x39) x204) x35) x83) (or x27 (or x26 (or x204 (or (or x241 x162) x209))))) (and (and (or (or (or x138 (or x12 (or x242 x246))) x237) x196) (or (or x99 (or x138 (or (or x21 x10) x24))) x255)) (and (or (or (or x36 (or x223 (or x106 x148))) x152) x226) (or (or (or (or x219 (or x203 x190)) x36) x9) x187))))))) (and (and (and (and (or x137 (or x13 (or (or (or x154 x142) x101) x97))) (or x1 (or x262 (or x68 (or x29 (or x258 x154)))))) (and (and (and (or x28 (or (or (or x98 (or x161 x205)) x17) x14)) (or (or x188 (or x78 (or (or x205 x134) x120))) x38)) (and (and (or (or (or x241 (or (or x79 x254) x239)) x86) x87) (or x248 (or (or x260 (or (or x254 x85) x197)) x201))) (and (and (or x45 (or x18 (or x106 (or (or x81 x160) x257)))) (or x173 (or (or (or x89 (or x261 x81)) x203) x93))) (and (or x217 (or x235 (or x10 (or x74 (or x69 x94))))) (or (or (or x246 (or (or x88 x94) x42)) x184) x121))))) (and (or x185 (or (or (or x228 (or x16 x141)) x30) x96)) (or (or x139 (or x210 (or x22 (or x141 x176)))) x110)))) (and (and (or (or x61 (or (or (or x142 x70) x143) x146)) x191) (or (or x195 (or (or x165 (or x258 x70)) x220)) x192)) (and (and (and (or x135 (or x253 (or x256 (or x109 (or x134 x119))))) (or (or (or (or x145 (or x161 x119)) x150) x168) x216)) (and (and (or (or (or (or (or x218 x79) x129) x251) x40) x105) (or x222 (or x5 (or (or x170 (or x218 x85)) x162)))) (and (and (or (or (or (or x71 (or x54 x261)) x148) x58) x50) (or (or (or (or x252 (or x54 x160)) x190) x124) x149)) (and (or x259 (or x206 (or x21 (or x73 (or x88 x214))))) (or (or (or x242 (or (or x214 x69) x92)) x19) x131))))) (and (or x202 (or x178 (or (or (or x176 x75) x221) x175))) (or x104 (or x230 (or (or (or x16 x75) x76) x33))))))) (and (and (or (or (or x66 (or (or x101 x165) x48)) x199) x144) (or (or x245 (or (or (or x143 x29) x48) x32)) x100)) (and (and (or x49 (or (or (or x112 (or x76 x22)) x232) x263)) (or (or x103 (or (or (or x221 x228) x112) x51)) x20)) (and (and (and (and (or x11 (or x64 (or x24 (or (or x92 x42) x225)))) (or (or (or (or x225 (or x73 x74)) x12) x23) x15)) (and (or (or x243 (or x219 (or (or x71 x257) x153))) x37) (or x177 (or x90 (or x223 (or (or x252 x89) x153)))))) (and (or (or x59 (or x39 (or (or x170 x239) x236))) x140) (or (or x194 (or x209 (or (or x197 x129) x236))) x44))) (and (or x189 (or (or x174 (or x158 (or x120 x145))) x238)) (or x198 (or (or (or x158 (or x98 x109)) x53) x115)))))))))))))
(assert (let ((x160 (x234 x80 x57)) (x247 (x234 x181 x171)) (x85 (x234 x181 x80)) (x69 (x234 x57 x181)) (x94 (x234 x181 x46)) (x244 (x234 x46 x46)) (x119 (x234 x57 x57)) (x72 (x234 x80 x181)) (x179 (x234 x171 x57)) (x6 (x234 x80 x163)) (x70 (x234 x46 x57)) (x127 (x234 x57 x171)) (x54 (x234 x171 x171)) (x161 (x234 x80 x80)) (x159 (x234 x163 x46)) (x126 (x234 x181 x181)) (x227 (x234 x46 x181)) (x75 (x234 x181 x57)) (x133 (x234 x171 x80)) (x218 (x234 x163 x57)) (x55 (x234 x171 x163)) (x214 (x234 x163 x163)) (x156 (x234 x171 x46)) (x166 (x234 x163 x80)) (x254 (x234 x46 x80)) (x183 (x234 x57 x163)) (x63 (x234 x163 x171)) (x118 (x234 x46 x163)) (x25 (x234 x46 x171)) (x208 (x234 x80 x46)) (x88 (x234 x57 x46)) (x81 (x234 x163 x181)) (x79 (x234 x57 x80)) (x34 (x234 x181 x163)) (x231 (x234 x80 x171)) (x261 (x234 x171 x181))) (and (and (or (= x80 (x234 x208 x208)) (or (or (= x181 (x234 x94 x94)) (or (or (= (x234 x159 x159) x163) (= x171 (x234 x156 x156))) (= x57 (x234 x88 x88)))) (= x46 (x234 x244 x244)))) (and (and (and (or (or (= x46 (x234 x25 x25)) (or (= x181 (x234 x247 x247)) (or (= x57 (x234 x127 x127)) (or (= (x234 x54 x54) x171) (= x163 (x234 x63 x63)))))) (= x80 (x234 x231 x231))) (or (or (= (x234 x118 x118) x46) (or (= (x234 x34 x34) x181) (or (or (= (x234 x55 x55) x171) (= x163 (x234 x214 x214))) (= (x234 x183 x183) x57)))) (= (x234 x6 x6) x80))) (or (= x80 (x234 x160 x160)) (or (or (or (or (= x163 (x234 x218 x218)) (= x171 (x234 x179 x179))) (= (x234 x119 x119) x57)) (= x181 (x234 x75 x75))) (= x46 (x234 x70 x70))))) (or (= x80 (x234 x72 x72)) (or (= (x234 x227 x227) x46) (or (or (= x57 (x234 x69 x69)) (or (= (x234 x81 x81) x163) (= x171 (x234 x261 x261)))) (= (x234 x126 x126) x181)))))) (or (or (or (or (= (x234 x79 x79) x57) (or (= x171 (x234 x133 x133)) (= x163 (x234 x166 x166)))) (= x181 (x234 x85 x85))) (= x46 (x234 x254 x254))) (= x80 (x234 x161 x161))))))
(assert (let ((x85 (x234 x80 x181)) (x183 (x234 x163 x57)) (x70 (x234 x57 x46)) (x75 (x234 x57 x181)) (x34 (x234 x163 x181)) (x160 (x234 x57 x80)) (x6 (x234 x163 x80)) (x218 (x234 x57 x163)) (x133 (x234 x80 x171)) (x25 (x234 x171 x46)) (x63 (x234 x171 x163)) (x126 (x234 x181 x181)) (x161 (x234 x80 x80)) (x81 (x234 x181 x163)) (x159 (x234 x46 x163)) (x247 (x234 x171 x181)) (x55 (x234 x163 x171)) (x244 (x234 x46 x46)) (x118 (x234 x163 x46)) (x79 (x234 x80 x57)) (x127 (x234 x171 x57)) (x227 (x234 x181 x46)) (x156 (x234 x46 x171)) (x254 (x234 x80 x46)) (x54 (x234 x171 x171)) (x208 (x234 x46 x80)) (x261 (x234 x181 x171)) (x94 (x234 x46 x181)) (x88 (x234 x46 x57)) (x119 (x234 x57 x57)) (x72 (x234 x181 x80)) (x214 (x234 x163 x163)) (x231 (x234 x171 x80)) (x179 (x234 x57 x171)) (x166 (x234 x80 x163)) (x69 (x234 x181 x57))) (and (and (and (or (= x254 x80) (or (= x254 x46) (or (= x181 x254) (or (= x254 x57) (or (= x163 x254) (= x171 x254)))))) (and (and (and (or (= x166 x80) (or (= x46 x166) (or (or (= x57 x166) (or (= x163 x166) (= x166 x171))) (= x181 x166)))) (or (or (or (or (or (= x163 x133) (= x133 x171)) (= x57 x133)) (= x181 x133)) (= x46 x133)) (= x133 x80))) (or (= x79 x80) (or (= x46 x79) (or (or (or (= x79 x163) (= x171 x79)) (= x57 x79)) (= x181 x79))))) (or (or (or (= x181 x85) (or (= x85 x57) (or (= x171 x85) (= x85 x163)))) (= x46 x85)) (= x80 x85)))) (or (or (or (= x181 x161) (or (or (= x161 x163) (= x171 x161)) (= x161 x57))) (= x161 x46)) (= x161 x80))) (and (and (and (or (or (or (or (or (= x244 x171) (= x244 x163)) (= x57 x244)) (= x244 x181)) (= x244 x46)) (= x80 x244)) (and (or (or (or (or (or (= x171 x94) (= x94 x163)) (= x57 x94)) (= x181 x94)) (= x94 x46)) (= x80 x94)) (and (and (or (or (or (or (or (= x159 x171) (= x163 x159)) (= x159 x57)) (= x159 x181)) (= x46 x159)) (= x80 x159)) (or (or (or (= x156 x181) (or (= x57 x156) (or (= x171 x156) (= x163 x156)))) (= x156 x46)) (= x80 x156))) (or (= x80 x88) (or (or (= x181 x88) (or (= x57 x88) (or (= x88 x171) (= x88 x163)))) (= x88 x46)))))) (or (= x80 x208) (or (or (or (= x208 x57) (or (= x208 x163) (= x208 x171))) (= x208 x181)) (= x208 x46)))) (and (and (and (and (and (and (and (or (or (or (= x181 x218) (or (or (= x218 x163) (= x218 x171)) (= x57 x218))) (= x218 x46)) (= x80 x218)) (or (= x80 x179) (or (= x46 x179) (or (or (or (= x163 x179) (= x171 x179)) (= x179 x57)) (= x181 x179))))) (or (or (or (or (= x57 x119) (or (= x119 x171) (= x119 x163))) (= x119 x181)) (= x119 x46)) (= x80 x119))) (or (or (or (or (= x57 x75) (or (= x75 x163) (= x171 x75))) (= x75 x181)) (= x46 x75)) (= x75 x80))) (or (= x70 x80) (or (= x70 x46) (or (or (= x57 x70) (or (= x70 x163) (= x70 x171))) (= x181 x70))))) (or (= x80 x160) (or (= x46 x160) (or (= x181 x160) (or (or (= x163 x160) (= x171 x160)) (= x160 x57)))))) (and (and (and (and (or (= x34 x80) (or (or (= x34 x181) (or (or (= x171 x34) (= x163 x34)) (= x57 x34))) (= x46 x34))) (and (and (or (= x214 x80) (or (= x46 x214) (or (or (= x57 x214) (or (= x171 x214) (= x163 x214))) (= x214 x181)))) (or (or (= x55 x46) (or (or (or (= x163 x55) (= x171 x55)) (= x55 x57)) (= x55 x181))) (= x80 x55))) (or (= x183 x80) (or (or (= x181 x183) (or (or (= x163 x183) (= x183 x171)) (= x183 x57))) (= x183 x46))))) (or (or (= x46 x118) (or (or (= x57 x118) (or (= x171 x118) (= x163 x118))) (= x181 x118))) (= x80 x118))) (or (or (or (= x6 x181) (or (= x6 x57) (or (= x171 x6) (= x163 x6)))) (= x6 x46)) (= x6 x80))) (and (or (= x80 x231) (or (= x46 x231) (or (or (= x57 x231) (or (= x163 x231) (= x171 x231))) (= x181 x231)))) (and (and (or (or (or (or (= x247 x57) (or (= x247 x171) (= x163 x247))) (= x247 x181)) (= x46 x247)) (= x80 x247)) (and (and (or (= x63 x80) (or (or (or (= x63 x57) (or (= x163 x63) (= x63 x171))) (= x63 x181)) (= x63 x46))) (or (= x54 x80) (or (= x54 x46) (or (= x54 x181) (or (= x57 x54) (or (= x54 x163) (= x54 x171))))))) (or (or (= x46 x127) (or (= x181 x127) (or (or (= x127 x171) (= x127 x163)) (= x127 x57)))) (= x80 x127)))) (or (= x80 x25) (or (= x46 x25) (or (= x181 x25) (or (= x57 x25) (or (= x25 x171) (= x25 x163)))))))))) (and (and (and (or (or (or (= x126 x181) (or (or (= x163 x126) (= x171 x126)) (= x126 x57))) (= x46 x126)) (= x126 x80)) (and (or (or (= x46 x69) (or (or (or (= x69 x163) (= x171 x69)) (= x57 x69)) (= x181 x69))) (= x69 x80)) (and (or (= x261 x80) (or (= x46 x261) (or (= x261 x181) (or (= x57 x261) (or (= x163 x261) (= x261 x171)))))) (or (or (or (= x81 x181) (or (or (= x81 x163) (= x81 x171)) (= x57 x81))) (= x81 x46)) (= x80 x81))))) (or (= x227 x80) (or (or (or (= x57 x227) (or (= x171 x227) (= x163 x227))) (= x227 x181)) (= x46 x227)))) (or (or (= x46 x72) (or (or (or (= x72 x171) (= x72 x163)) (= x57 x72)) (= x72 x181))) (= x80 x72))))))))
(assert (let ((x127 (x234 x171 x57)) (x79 (x234 x80 x57)) (x166 (x234 x80 x163)) (x81 (x234 x181 x163)) (x63 (x234 x171 x163)) (x70 (x234 x57 x46)) (x161 (x234 x80 x80)) (x25 (x234 x171 x46)) (x69 (x234 x181 x57)) (x208 (x234 x46 x80)) (x261 (x234 x181 x171)) (x133 (x234 x80 x171)) (x244 (x234 x46 x46)) (x254 (x234 x80 x46)) (x85 (x234 x80 x181)) (x55 (x234 x163 x171)) (x227 (x234 x181 x46)) (x160 (x234 x57 x80)) (x247 (x234 x171 x181)) (x72 (x234 x181 x80)) (x183 (x234 x163 x57)) (x218 (x234 x57 x163)) (x214 (x234 x163 x163)) (x75 (x234 x57 x181)) (x34 (x234 x163 x181)) (x156 (x234 x46 x171)) (x231 (x234 x171 x80)) (x6 (x234 x163 x80)) (x94 (x234 x46 x181)) (x118 (x234 x163 x46)) (x119 (x234 x57 x57)) (x54 (x234 x171 x171)) (x126 (x234 x181 x181)) (x179 (x234 x57 x171)) (x88 (x234 x46 x57)) (x159 (x234 x46 x163))) (and (and (or (= x161 x161) (not (= x80 (x234 x80 x161)))) (and (and (and (or (= x79 x160) (not (= x57 (x234 x80 x79)))) (and (or (not (= (x234 x80 x166) x163)) (= x166 x6)) (or (= x133 x231) (not (= (x234 x80 x133) x171))))) (or (not (= (x234 x80 x85) x181)) (= x72 x85))) (or (not (= x46 (x234 x80 x254))) (= x254 x208)))) (and (and (and (and (and (or (= x133 x231) (not (= x80 (x234 x171 x231)))) (and (or (not (= (x234 x171 x25) x46)) (= x156 x25)) (and (or (not (= (x234 x171 x247) x181)) (= x247 x261)) (and (and (or (not (= x163 (x234 x171 x63))) (= x63 x55)) (or (not (= x171 (x234 x171 x54))) (= x54 x54))) (or (not (= x57 (x234 x171 x127))) (= x179 x127)))))) (and (or (= x166 x6) (not (= (x234 x163 x6) x80))) (and (or (= x159 x118) (not (= x46 (x234 x163 x118)))) (and (and (or (= x183 x218) (not (= (x234 x163 x183) x57))) (and (or (= x55 x63) (not (= x171 (x234 x163 x55)))) (or (not (= (x234 x163 x214) x163)) (= x214 x214)))) (or (= x81 x34) (not (= x181 (x234 x163 x34)))))))) (and (and (and (and (or (not (= x57 (x234 x57 x119))) (= x119 x119)) (and (or (= x179 x127) (not (= (x234 x57 x179) x171))) (or (= x183 x218) (not (= x163 (x234 x57 x218)))))) (or (not (= x181 (x234 x57 x75))) (= x75 x69))) (or (not (= (x234 x57 x70) x46)) (= x70 x88))) (or (not (= (x234 x57 x160) x80)) (= x160 x79)))) (and (and (and (and (and (or (not (= (x234 x181 x261) x171)) (= x261 x247)) (or (not (= x163 (x234 x181 x81))) (= x34 x81))) (or (= x69 x75) (not (= x57 (x234 x181 x69))))) (or (= x126 x126) (not (= (x234 x181 x126) x181)))) (or (= x94 x227) (not (= (x234 x181 x227) x46)))) (or (= x85 x72) (not (= x80 (x234 x181 x72)))))) (and (or (= x208 x254) (not (= (x234 x46 x208) x80))) (and (or (not (= (x234 x46 x244) x46)) (= x244 x244)) (and (and (and (or (not (= x163 (x234 x46 x159))) (= x159 x118)) (or (= x25 x156) (not (= (x234 x46 x156) x171)))) (or (= x88 x70) (not (= (x234 x46 x88) x57)))) (or (= x94 x227) (not (= (x234 x46 x94) x181))))))))))
(assert (and (and (= (x234 x181 x80) x46) (and (= x181 (x234 x171 x57)) (and (= x163 (x234 x181 x57)) (= (x234 x57 x57) x171)))) (= x80 (x234 x57 x181))))
(assert (not (and (and (and (= (x234 x80 x181) x57) (and (and (= x80 (x234 x80 x163)) (and (= (x234 x80 x171) x181) (and (and (and (and (= (x234 x46 x57) x80) (and (and (and (= x46 (x234 x181 x80)) (and (and (= x171 (x234 x181 x181)) (and (= (x234 x181 x57) x163) (and (= (x234 x181 x163) x181) (and (= (x234 x181 x171) x80) (and (and (and (= (x234 x57 x181) x80) (and (= (x234 x57 x57) x171) (and (and (= x46 (x234 x57 x171)) (and (and (and (and (= (x234 x163 x57) x57) (and (= x163 (x234 x163 x163)) (and (and (and (and (= x46 (x234 x171 x181)) (and (and (= x171 (x234 x171 x163)) (= (x234 x171 x171) x163)) (= x181 (x234 x171 x57)))) (= (x234 x171 x46) x80)) (= (x234 x171 x80) x57)) (= x171 (x234 x163 x171))))) (= (x234 x163 x181) x181)) (= x46 (x234 x163 x46))) (= x80 (x234 x163 x80)))) (= (x234 x57 x163) x57)))) (= x181 (x234 x57 x46))) (= (x234 x57 x80) x163)))))) (= (x234 x181 x46) x57))) (= (x234 x46 x171) x57)) (= x46 (x234 x46 x163)))) (= (x234 x46 x181) x163)) (= (x234 x46 x46) x171)) (= x181 (x234 x46 x80))))) (= x46 (x234 x80 x57)))) (= (x234 x80 x46) x163)) (= x171 (x234 x80 x80)))))
(assert (or (and (and (not (= x46 (x234 (x234 x80 x46) x80))) (and (and (and (not (= x163 (x234 (x234 x80 x163) x80))) (not (= (x234 (x234 x80 x171) x80) x171))) (not (= (x234 (x234 x80 x57) x80) x57))) (not (= (x234 (x234 x80 x181) x80) x181)))) (not (= (x234 (x234 x80 x80) x80) x80))) (or (and (not (= x80 (x234 (x234 x46 x80) x46))) (and (not (= x46 (x234 (x234 x46 x46) x46))) (and (not (= (x234 (x234 x46 x181) x46) x181)) (and (not (= (x234 (x234 x46 x57) x46) x57)) (and (not (= (x234 (x234 x46 x163) x46) x163)) (not (= x171 (x234 (x234 x46 x171) x46)))))))) (or (and (not (= x80 (x234 (x234 x181 x80) x181))) (and (not (= x46 (x234 (x234 x181 x46) x181))) (and (not (= x181 (x234 (x234 x181 x181) x181))) (and (not (= (x234 (x234 x181 x57) x181) x57)) (and (not (= (x234 (x234 x181 x171) x181) x171)) (not (= (x234 (x234 x181 x163) x181) x163))))))) (or (and (not (= (x234 (x234 x57 x80) x57) x80)) (and (and (not (= (x234 (x234 x57 x181) x57) x181)) (and (not (= x57 (x234 (x234 x57 x57) x57))) (and (not (= x163 (x234 (x234 x57 x163) x57))) (not (= (x234 (x234 x57 x171) x57) x171))))) (not (= (x234 (x234 x57 x46) x57) x46)))) (or (and (not (= x80 (x234 (x234 x171 x80) x171))) (and (not (= x46 (x234 (x234 x171 x46) x171))) (and (and (and (not (= x163 (x234 (x234 x171 x163) x171))) (not (= (x234 (x234 x171 x171) x171) x171))) (not (= (x234 (x234 x171 x57) x171) x57))) (not (= x181 (x234 (x234 x171 x181) x171)))))) (and (not (= x80 (x234 (x234 x163 x80) x163))) (and (and (and (and (not (= x171 (x234 (x234 x163 x171) x163))) (not (= x163 (x234 (x234 x163 x163) x163)))) (not (= x57 (x234 (x234 x163 x57) x163)))) (not (= x181 (x234 (x234 x163 x181) x163)))) (not (= (x234 (x234 x163 x46) x163) x46))))))))))
(assert (let ((x69 (x234 x80 x57)) (x75 (x234 x163 x57)) (x25 (x234 x181 x171)) (x34 (x234 x163 x163)) (x244 (x234 x171 x46)) (x231 (x234 x46 x171)) (x160 (x234 x57 x57)) (x176 (x234 x46 x80)) (x208 (x234 x163 x46)) (x133 (x234 x57 x46)) (x127 (x234 x163 x171)) (x126 (x234 x171 x181)) (x227 (x234 x163 x181)) (x63 (x234 x171 x171)) (x81 (x234 x46 x57)) (x118 (x234 x57 x163)) (x142 (x234 x80 x80)) (x161 (x234 x171 x80)) (x254 (x234 x80 x46)) (x55 (x234 x80 x171)) (x6 (x234 x181 x163)) (x85 (x234 x46 x46)) (x218 (x234 x80 x163)) (x72 (x234 x57 x181)) (x261 (x234 x181 x57)) (x214 (x234 x171 x163)) (x179 (x234 x46 x163)) (x134 (x234 x163 x80)) (x94 (x234 x80 x181)) (x119 (x234 x171 x57)) (x166 (x234 x181 x46)) (x247 (x234 x57 x171)) (x88 (x234 x46 x181)) (x205 (x234 x57 x80)) (x16 (x234 x181 x80)) (x159 (x234 x181 x181))) (let ((x183 (= (x234 x163 x34) x163)) (x79 (= (x234 x46 x85) x46)) (x54 (= (x234 x171 x63) x171)) (x156 (= x181 (x234 x181 x159))) (x70 (= x57 (x234 x57 x160))) (x141 (= (x234 x80 x142) x80))) (and (or (or (or (or (or (and (not (= x229 x163)) x183) (and x54 (not (= x229 x171)))) (and (not (= x57 x229)) x70)) (and x156 (not (= x181 x229)))) (and (not (= x46 x229)) x79)) (and (not (= x229 x80)) x141)) (and (or (and (not (= x229 x142)) x141) (or (and (= x80 (x234 x46 x176)) (not (= x229 x176))) (or (or (and (not (= x229 x205)) (= x80 (x234 x57 x205))) (or (and (= x80 (x234 x171 x161)) (not (= x229 x161))) (and (not (= x134 x229)) (= (x234 x163 x134) x80)))) (and (not (= x229 x16)) (= (x234 x181 x16) x80))))) (and (or (or (and x79 (not (= x85 x229))) (or (and (= x46 (x234 x181 x166)) (not (= x229 x166))) (or (and (not (= x133 x229)) (= (x234 x57 x133) x46)) (or (and (= x46 (x234 x163 x208)) (not (= x208 x229))) (and (not (= x244 x229)) (= x46 (x234 x171 x244))))))) (and (not (= x254 x229)) (= x46 (x234 x80 x254)))) (and (and (or (and (= (x234 x80 x69) x57) (not (= x229 x69))) (or (or (and (not (= x229 x261)) (= x57 (x234 x181 x261))) (or (and x70 (not (= x160 x229))) (or (and (= x57 (x234 x171 x119)) (not (= x119 x229))) (and (not (= x75 x229)) (= x57 (x234 x163 x75)))))) (and (not (= x229 x81)) (= x57 (x234 x46 x81))))) (and (or (or (or (and (= x163 (x234 x181 x6)) (not (= x6 x229))) (or (and (not (= x229 x118)) (= x163 (x234 x57 x118))) (or (and (not (= x229 x34)) x183) (and (not (= x229 x214)) (= (x234 x171 x214) x163))))) (and (= x163 (x234 x46 x179)) (not (= x179 x229)))) (and (= x163 (x234 x80 x218)) (not (= x218 x229)))) (or (and (= x171 (x234 x80 x55)) (not (= x229 x55))) (or (or (and (not (= x229 x25)) (= (x234 x181 x25) x171)) (or (or (and (not (= x127 x229)) (= x171 (x234 x163 x127))) (and (not (= x63 x229)) x54)) (and (= (x234 x57 x247) x171) (not (= x247 x229))))) (and (not (= x231 x229)) (= x171 (x234 x46 x231))))))) (or (and (not (= x229 x94)) (= (x234 x80 x94) x181)) (or (and (= x181 (x234 x46 x88)) (not (= x229 x88))) (or (and (not (= x229 x159)) x156) (or (or (and (not (= x126 x229)) (= (x234 x171 x126) x181)) (and (not (= x227 x229)) (= x181 (x234 x163 x227)))) (and (= (x234 x57 x72) x181) (not (= x72 x229))))))))))))))
(assert (let ((x55 (x234 x171 x163)) (x244 (x234 x46 x46)) (x156 (x234 x171 x46)) (x126 (x234 x181 x181)) (x183 (x234 x57 x163)) (x179 (x234 x171 x57)) (x261 (x234 x171 x181)) (x34 (x234 x181 x163)) (x63 (x234 x163 x171)) (x69 (x234 x57 x181)) (x79 (x234 x57 x80)) (x72 (x234 x80 x181)) (x208 (x234 x80 x46)) (x231 (x234 x80 x171)) (x70 (x234 x46 x57)) (x75 (x234 x181 x57)) (x119 (x234 x57 x57)) (x133 (x234 x171 x80)) (x166 (x234 x163 x80)) (x254 (x234 x46 x80)) (x6 (x234 x80 x163)) (x118 (x234 x46 x163)) (x94 (x234 x181 x46)) (x54 (x234 x171 x171)) (x127 (x234 x57 x171)) (x218 (x234 x163 x57)) (x160 (x234 x80 x57)) (x161 (x234 x80 x80)) (x25 (x234 x46 x171)) (x227 (x234 x46 x181)) (x214 (x234 x163 x163)) (x247 (x234 x181 x171)) (x81 (x234 x163 x181)) (x88 (x234 x57 x46)) (x159 (x234 x163 x46)) (x85 (x234 x181 x80))) (and (and (and (and (not (= x72 x161)) (and (and (not (= x160 x161)) (and (and (and (and (not (= x6 x208)) (and (and (and (and (not (= x231 x208)) (and (not (= x231 x72)) (and (not (= x160 x231)) (not (= x231 x6))))) (not (= x231 x161))) (not (= x160 x6))) (not (= x6 x72)))) (not (= x6 x161))) (not (= x160 x72))) (not (= x208 x160)))) (not (= x72 x208)))) (not (= x161 x208))) (and (and (and (and (and (and (and (and (not (= x119 x88)) (and (not (= x69 x119)) (and (and (not (= x88 x183)) (and (not (= x183 x69)) (and (not (= x119 x183)) (and (and (and (and (not (= x127 x183)) (not (= x127 x119))) (not (= x69 x127))) (not (= x127 x88))) (not (= x127 x79)))))) (not (= x183 x79))))) (not (= x119 x79))) (not (= x69 x88))) (not (= x69 x79))) (not (= x79 x88))) (and (and (not (= x156 x133)) (and (and (and (not (= x133 x179)) (and (and (and (and (and (and (not (= x179 x55)) (and (not (= x133 x54)) (and (not (= x54 x156)) (and (and (not (= x54 x55)) (not (= x54 x179))) (not (= x54 x261)))))) (not (= x55 x261))) (not (= x55 x156))) (not (= x133 x55))) (not (= x179 x261))) (not (= x156 x179)))) (not (= x156 x261))) (not (= x133 x261)))) (and (not (= x159 x166)) (and (not (= x81 x166)) (and (and (not (= x218 x166)) (and (and (and (and (not (= x214 x159)) (and (not (= x214 x81)) (and (and (not (= x63 x166)) (and (not (= x63 x159)) (and (not (= x81 x63)) (and (not (= x63 x214)) (not (= x218 x63)))))) (not (= x214 x218))))) (not (= x166 x214))) (not (= x218 x81))) (not (= x159 x218)))) (not (= x159 x81))))))) (and (and (and (and (not (= x85 x75)) (and (not (= x75 x94)) (and (and (and (and (not (= x126 x34)) (and (and (not (= x247 x85)) (and (and (not (= x126 x247)) (and (not (= x34 x247)) (not (= x247 x75)))) (not (= x247 x94)))) (not (= x75 x34)))) (not (= x94 x34))) (not (= x85 x34))) (not (= x75 x126))))) (not (= x94 x126))) (not (= x85 x126))) (not (= x85 x94)))) (and (and (not (= x254 x227)) (and (not (= x244 x227)) (and (not (= x254 x70)) (and (not (= x70 x244)) (and (not (= x227 x70)) (and (not (= x118 x254)) (and (not (= x244 x118)) (and (and (not (= x118 x70)) (and (not (= x254 x25)) (and (and (not (= x227 x25)) (and (not (= x70 x25)) (not (= x118 x25)))) (not (= x25 x244))))) (not (= x118 x227)))))))))) (not (= x254 x244))))) (and (and (and (and (not (= x94 x208)) (and (and (and (and (and (not (= x159 x208)) (and (not (= x159 x244)) (and (not (= x94 x159)) (and (and (not (= x156 x208)) (and (not (= x244 x156)) (and (and (not (= x156 x159)) (not (= x88 x156))) (not (= x156 x94))))) (not (= x159 x88)))))) (not (= x88 x94))) (not (= x88 x244))) (not (= x208 x88))) (not (= x244 x94)))) (not (= x208 x244))) (and (and (and (and (not (= x227 x126)) (and (and (not (= x227 x69)) (and (and (not (= x81 x72)) (and (and (not (= x126 x81)) (and (and (not (= x72 x261)) (and (not (= x261 x227)) (and (and (not (= x81 x261)) (not (= x69 x261))) (not (= x261 x126))))) (not (= x69 x81)))) (not (= x81 x227)))) (not (= x69 x126)))) (not (= x72 x69)))) (not (= x72 x126))) (not (= x72 x227))) (and (and (and (and (and (not (= x25 x247)) (and (not (= x231 x127)) (and (and (and (and (and (not (= x247 x63)) (and (and (and (and (not (= x54 x247)) (and (not (= x63 x54)) (not (= x127 x54)))) (not (= x25 x54))) (not (= x54 x231))) (not (= x127 x63)))) (not (= x63 x25))) (not (= x63 x231))) (not (= x247 x127))) (not (= x127 x25))))) (not (= x231 x247))) (not (= x25 x231))) (and (not (= x6 x118)) (and (not (= x6 x34)) (and (not (= x118 x34)) (and (and (not (= x118 x183)) (and (not (= x34 x183)) (and (not (= x214 x6)) (and (and (not (= x34 x214)) (and (and (and (not (= x118 x55)) (and (and (not (= x183 x55)) (not (= x214 x55))) (not (= x55 x34)))) (not (= x6 x55))) (not (= x183 x214)))) (not (= x118 x214)))))) (not (= x183 x6))))))) (and (not (= x160 x70)) (and (not (= x75 x160)) (and (and (and (not (= x70 x119)) (and (not (= x119 x75)) (and (not (= x160 x218)) (and (not (= x218 x70)) (and (not (= x75 x218)) (and (not (= x119 x218)) (and (not (= x160 x179)) (and (not (= x179 x70)) (and (not (= x179 x75)) (and (not (= x179 x218)) (not (= x179 x119)))))))))))) (not (= x160 x119))) (not (= x75 x70)))))))) (and (and (not (= x161 x85)) (and (and (and (not (= x79 x254)) (and (and (and (and (and (and (and (and (and (not (= x166 x133)) (not (= x133 x79))) (not (= x85 x133))) (not (= x254 x133))) (not (= x161 x133))) (not (= x166 x79))) (not (= x166 x85))) (not (= x166 x254))) (not (= x161 x166))) (not (= x79 x85)))) (not (= x161 x79))) (not (= x254 x85)))) (not (= x254 x161)))))))
(assert (let ((x166 (x234 x80 x163)) (x55 (x234 x163 x171)) (x227 (x234 x181 x46)) (x63 (x234 x171 x163)) (x254 (x234 x80 x46)) (x72 (x234 x181 x80)) (x70 (x234 x57 x46)) (x133 (x234 x80 x171)) (x214 (x234 x163 x163)) (x94 (x234 x46 x181)) (x6 (x234 x163 x80)) (x34 (x234 x163 x181)) (x119 (x234 x57 x57)) (x54 (x234 x171 x171)) (x127 (x234 x171 x57)) (x81 (x234 x181 x163)) (x159 (x234 x46 x163)) (x183 (x234 x163 x57)) (x88 (x234 x46 x57)) (x208 (x234 x46 x80)) (x85 (x234 x80 x181)) (x69 (x234 x181 x57)) (x118 (x234 x163 x46)) (x161 (x234 x80 x80)) (x79 (x234 x80 x57)) (x156 (x234 x46 x171)) (x231 (x234 x171 x80)) (x261 (x234 x181 x171)) (x25 (x234 x171 x46)) (x244 (x234 x46 x46)) (x179 (x234 x57 x171)) (x218 (x234 x57 x163)) (x75 (x234 x57 x181)) (x160 (x234 x57 x80)) (x247 (x234 x171 x181)) (x126 (x234 x181 x181))) (and (and (and (and (and (or (or (or (or (= (x234 x183 x183) x57) (or (= (x234 x214 x214) x163) (= x171 (x234 x55 x55)))) (= (x234 x34 x34) x181)) (= (x234 x118 x118) x46)) (= (x234 x6 x6) x80)) (or (= x80 (x234 x231 x231)) (or (or (= (x234 x247 x247) x181) (or (= x57 (x234 x127 x127)) (or (= (x234 x54 x54) x171) (= (x234 x63 x63) x163)))) (= x46 (x234 x25 x25))))) (or (or (= (x234 x70 x70) x46) (or (= x181 (x234 x75 x75)) (or (= x57 (x234 x119 x119)) (or (= x163 (x234 x218 x218)) (= (x234 x179 x179) x171))))) (= x80 (x234 x160 x160)))) (or (= x80 (x234 x72 x72)) (or (= x46 (x234 x227 x227)) (or (or (= (x234 x69 x69) x57) (or (= x163 (x234 x81 x81)) (= (x234 x261 x261) x171))) (= (x234 x126 x126) x181))))) (or (= (x234 x208 x208) x80) (or (= x46 (x234 x244 x244)) (or (or (or (= (x234 x159 x159) x163) (= x171 (x234 x156 x156))) (= (x234 x88 x88) x57)) (= (x234 x94 x94) x181))))) (or (or (or (= x181 (x234 x85 x85)) (or (= (x234 x79 x79) x57) (or (= (x234 x166 x166) x163) (= (x234 x133 x133) x171)))) (= (x234 x254 x254) x46)) (= (x234 x161 x161) x80)))))
(assert (not (and (= x171 (x234 x80 x80)) (and (= (x234 x80 x46) x163) (and (and (= (x234 x80 x57) x46) (and (and (and (and (= (x234 x46 x46) x171) (and (and (= x80 (x234 x46 x57)) (and (= (x234 x46 x163) x46) (and (and (= x46 (x234 x181 x80)) (and (= x57 (x234 x181 x46)) (and (and (= (x234 x181 x57) x163) (and (= (x234 x181 x163) x181) (and (= (x234 x181 x171) x80) (and (= (x234 x57 x80) x163) (and (= (x234 x57 x46) x181) (and (and (and (= (x234 x57 x163) x57) (and (= (x234 x57 x171) x46) (and (= (x234 x163 x80) x80) (and (= (x234 x163 x46) x46) (and (= x181 (x234 x163 x181)) (and (and (= x163 (x234 x163 x163)) (and (and (and (and (and (= x181 (x234 x171 x57)) (and (= x163 (x234 x171 x171)) (= x171 (x234 x171 x163)))) (= x46 (x234 x171 x181))) (= x80 (x234 x171 x46))) (= x57 (x234 x171 x80))) (= (x234 x163 x171) x171))) (= x57 (x234 x163 x57)))))))) (= (x234 x57 x57) x171)) (= (x234 x57 x181) x80))))))) (= x171 (x234 x181 x181))))) (= x57 (x234 x46 x171))))) (= x163 (x234 x46 x181)))) (= (x234 x46 x80) x181)) (= x181 (x234 x80 x171))) (= x80 (x234 x80 x163)))) (= (x234 x80 x181) x57))))))
(assert (and (and (or (or (= (x234 (x234 x46 x46) x46) x46) (or (or (= x57 (x234 (x234 x57 x46) x46)) (or (= x163 (x234 (x234 x163 x46) x46)) (= (x234 (x234 x171 x46) x46) x171))) (= (x234 (x234 x181 x46) x46) x181))) (= (x234 (x234 x80 x46) x46) x80)) (and (and (or (or (or (or (or (= (x234 (x234 x163 x57) x57) x163) (= (x234 (x234 x171 x57) x57) x171)) (= (x234 (x234 x57 x57) x57) x57)) (= x181 (x234 (x234 x181 x57) x57))) (= (x234 (x234 x46 x57) x57) x46)) (= (x234 (x234 x80 x57) x57) x80)) (and (or (or (or (= x181 (x234 (x234 x181 x171) x171)) (or (= (x234 (x234 x57 x171) x171) x57) (or (= x171 (x234 (x234 x171 x171) x171)) (= x163 (x234 (x234 x163 x171) x171))))) (= (x234 (x234 x46 x171) x171) x46)) (= (x234 (x234 x80 x171) x171) x80)) (or (= x80 (x234 (x234 x80 x163) x163)) (or (= (x234 (x234 x46 x163) x163) x46) (or (or (or (= (x234 (x234 x163 x163) x163) x163) (= x171 (x234 (x234 x171 x163) x163))) (= x57 (x234 (x234 x57 x163) x163))) (= (x234 (x234 x181 x163) x163) x181)))))) (or (= x80 (x234 (x234 x80 x181) x181)) (or (or (= (x234 (x234 x181 x181) x181) x181) (or (= x57 (x234 (x234 x57 x181) x181)) (or (= x171 (x234 (x234 x171 x181) x181)) (= (x234 (x234 x163 x181) x181) x163)))) (= x46 (x234 (x234 x46 x181) x181)))))) (or (= (x234 (x234 x80 x80) x80) x80) (or (or (or (= x57 (x234 (x234 x57 x80) x80)) (or (= x171 (x234 (x234 x171 x80) x80)) (= (x234 (x234 x163 x80) x80) x163))) (= x181 (x234 (x234 x181 x80) x80))) (= (x234 (x234 x46 x80) x80) x46)))))
(assert (and (not (= x80 x46)) (and (and (and (not (= x57 x80)) (and (not (= x46 x57)) (and (and (and (not (= x163 x46)) (and (not (= x163 x181)) (and (not (= x57 x163)) (and (not (= x80 x171)) (and (and (not (= x171 x181)) (and (not (= x171 x163)) (not (= x171 x57)))) (not (= x171 x46))))))) (not (= x163 x80))) (not (= x181 x57))))) (not (= x46 x181))) (not (= x181 x80)))))
(assert (not (and (= (x234 x80 x80) x171) (and (= (x234 x80 x46) x163) (and (and (and (= (x234 x80 x163) x80) (and (= x181 (x234 x80 x171)) (and (= (x234 x46 x80) x181) (and (and (= x163 (x234 x46 x181)) (and (and (and (= (x234 x46 x171) x57) (and (and (= x57 (x234 x181 x46)) (and (and (and (and (= (x234 x181 x171) x80) (and (and (= (x234 x57 x46) x181) (and (= x80 (x234 x57 x181)) (and (and (= (x234 x57 x163) x57) (and (= x46 (x234 x57 x171)) (and (and (= x46 (x234 x163 x46)) (and (and (= (x234 x163 x57) x57) (and (and (= x171 (x234 x163 x171)) (and (and (and (= x46 (x234 x171 x181)) (and (= x181 (x234 x171 x57)) (and (= x171 (x234 x171 x163)) (= (x234 x171 x171) x163)))) (= x80 (x234 x171 x46))) (= x57 (x234 x171 x80)))) (= (x234 x163 x163) x163))) (= x181 (x234 x163 x181)))) (= x80 (x234 x163 x80))))) (= (x234 x57 x57) x171)))) (= x163 (x234 x57 x80)))) (= (x234 x181 x163) x181)) (= (x234 x181 x57) x163)) (= x171 (x234 x181 x181)))) (= (x234 x181 x80) x46))) (= x46 (x234 x46 x163))) (= x80 (x234 x46 x57)))) (= (x234 x46 x46) x171))))) (= (x234 x80 x57) x46)) (= x57 (x234 x80 x181)))))))
(assert (let ((x231 (x234 x57 x171)) (x254 (x234 x80 x46)) (x6 (x234 x163 x181)) (x160 (x234 x46 x171)) (x247 (x234 x163 x163)) (x133 (x234 x80 x57)) (x75 (x234 x181 x181)) (x227 (x234 x181 x46)) (x54 (x234 x171 x171)) (x88 (x234 x80 x171)) (x161 (x234 x80 x80)) (x72 (x234 x46 x181)) (x119 (x234 x181 x57)) (x159 (x234 x171 x80)) (x244 (x234 x80 x163)) (x70 (x234 x171 x46)) (x94 (x234 x163 x80)) (x156 (x234 x46 x46)) (x127 (x234 x163 x171)) (x81 (x234 x46 x163)) (x126 (x234 x46 x57)) (x25 (x234 x171 x57)) (x79 (x234 x80 x181)) (x85 (x234 x46 x80)) (x55 (x234 x163 x57)) (x69 (x234 x57 x46)) (x166 (x234 x181 x80)) (x208 (x234 x57 x80)) (x261 (x234 x163 x46)) (x118 (x234 x181 x171)) (x63 (x234 x171 x163)) (x218 (x234 x57 x181)) (x183 (x234 x57 x57)) (x214 (x234 x57 x163)) (x34 (x234 x171 x181)) (x179 (x234 x181 x163))) (or (or (or (or (or (or (not (= x88 x159)) (not (= x94 x244))) (not (= x208 x133))) (not (= x79 x166))) (not (= x85 x254))) (not (= x161 x161))) (or (or (or (or (or (not (= x159 x88)) (or (or (or (not (= x25 x231)) (or (not (= x54 x54)) (not (= x63 x127)))) (not (= x118 x34))) (not (= x70 x160)))) (or (or (or (not (= x6 x179)) (or (or (not (= x63 x127)) (not (= x247 x247))) (not (= x55 x214)))) (not (= x81 x261))) (not (= x244 x94)))) (or (or (not (= x126 x69)) (or (not (= x218 x119)) (or (not (= x183 x183)) (or (not (= x231 x25)) (not (= x214 x55)))))) (not (= x133 x208)))) (or (not (= x79 x166)) (or (not (= x227 x72)) (or (or (or (not (= x6 x179)) (not (= x118 x34))) (not (= x119 x218))) (not (= x75 x75)))))) (or (or (or (not (= x227 x72)) (or (not (= x126 x69)) (or (not (= x70 x160)) (not (= x261 x81))))) (not (= x156 x156))) (not (= x85 x254)))))))
(assert (not (and (and (and (= x57 (x234 x80 x181)) (and (= (x234 x80 x57) x46) (and (= x80 (x234 x80 x163)) (and (and (and (and (= (x234 x46 x181) x163) (and (and (and (and (and (and (and (= x163 (x234 x181 x57)) (and (and (and (and (and (= x80 (x234 x57 x181)) (and (and (= (x234 x57 x163) x57) (and (= (x234 x57 x171) x46) (and (= (x234 x163 x80) x80) (and (= (x234 x163 x46) x46) (and (= (x234 x163 x181) x181) (and (and (and (and (= (x234 x171 x80) x57) (and (and (= x46 (x234 x171 x181)) (and (and (= (x234 x171 x171) x163) (= (x234 x171 x163) x171)) (= x181 (x234 x171 x57)))) (= x80 (x234 x171 x46)))) (= (x234 x163 x171) x171)) (= (x234 x163 x163) x163)) (= x57 (x234 x163 x57)))))))) (= (x234 x57 x57) x171))) (= x181 (x234 x57 x46))) (= x163 (x234 x57 x80))) (= x80 (x234 x181 x171))) (= (x234 x181 x163) x181))) (= x171 (x234 x181 x181))) (= x57 (x234 x181 x46))) (= (x234 x181 x80) x46)) (= (x234 x46 x171) x57)) (= x46 (x234 x46 x163))) (= (x234 x46 x57) x80))) (= x171 (x234 x46 x46))) (= x181 (x234 x46 x80))) (= x181 (x234 x80 x171)))))) (= (x234 x80 x46) x163)) (= x171 (x234 x80 x80)))))
(assert (and (and (and (and (and (and (= (x234 x57 x229) x57) (= x57 (x234 x229 x57))) (and (and (= (x234 x229 x163) x163) (= (x234 x163 x229) x163)) (and (= x171 (x234 x171 x229)) (= (x234 x229 x171) x171)))) (and (= (x234 x181 x229) x181) (= (x234 x229 x181) x181))) (and (= (x234 x229 x46) x46) (= (x234 x46 x229) x46))) (and (= x80 (x234 x80 x229)) (= (x234 x229 x80) x80))) (or (= x80 x229) (or (= x229 x46) (or (or (= x57 x229) (or (= x229 x163) (= x229 x171))) (= x229 x181))))))
(check-sat)
(exit)
